benchmarks_vrp/CMT4/min_c/CMT4_3.vrp
NAME: CMT4_3
TYPE: CVRP
COMMENT: 1028.42 - Cluster Nr.3
DIMENSION: 11
CAPACITY: 200
EDGE_WEIGHT_TYPE: EUC_2D
NODE_COORD_TYPE: TWOD_COORDS
NODE_COORD_SECTION: 
9 37 31
8 48 28
2 45 30
3 32 39
4 40 30
1 45 35
6 35 40
7 35 35
10 42 41
11 40 25
5 41 37
DEPOT_SECTION: 
7
-1
DEMAND_SECTION: 
1 15
2 17
11 9
4 21
10 19
3 5
8 18
9 14
6 16
7 0
5 16
EOF
