benchmarks_vrp/CMT4/min_c/CMT4_3.tour
NAME: CMT4_3 solution
TYPE: TOUR
TOUR_SECTION:
7 3 6 10 5 1 2 8 11 4 9 -1
-1
EOF